20,1,10,1,17,2,9,1,1,2,11,1,14,3,8,5,4,2,3,3,12,5,6,4,16,4,18,3,19,4,2,2,15,5,7,5,5,4,13,5;6,1,17,1,13,2,8,3,20,2,3,2,9,2,2,1,12,4,1,3,19,2,15,4,11,3,14,4,4,4,5,3,7,2,18,4,10,5,16,5;13,1,15,1,14,1,12,2,10,3,8,4,4,1,20,3,9,3,6,3,16,3,5,1,17,5,3,4,19,3,1,5,11,4,7,3,2,3,18,5;3,1,8,2,12,1,1,1,19,1,6,2,18,2,17,3,16,2,15,3,11,2,4,3,13,3,7,1,9,4,5,2,10,4,20,5,14,5,2,4;8,1,16,1,10,2,18,1,12,3,15,2,14,2,17,4,1,4,6,5,3,5,20,4,13,4,7,4,9,5,11,5,19,5,4,5,2,5,5,5;
